<?xml version = "1.0" encoding="UTF-8" standalone="yes"?>
<CPLEXSolution version="1.2">
 <header
   problemName="ilog.cplex"
   solutionName="incumbent"
   solutionIndex="-1"
   objectiveValue="294"
   solutionTypeValue="3"
   solutionTypeString="primal"
   solutionStatusValue="101"
   solutionStatusString="integer optimal solution"
   solutionMethodString="mip"
   primalFeasible="1"
   dualFeasible="1"
   MIPNodes="2767"
   MIPIterations="87088"
   writeLevel="3"/>
 <quality
   epInt="1.0000000000000001e-05"
   epRHS="9.9999999999999995e-07"
   maxIntInfeas="1.2434497875801753e-13"
   maxPrimalInfeas="0"
   maxX="19"
   maxSlack="100"/>
 <variables>
  <variable name="x_0_14_0" index="14" value="1"/>
  <variable name="x_12_0_0" index="31" value="1"/>
  <variable name="x_0_7_1" index="46" value="1"/>
  <variable name="x_12_0_1" index="70" value="1"/>
  <variable name="x_0_1_2" index="79" value="1"/>
  <variable name="x_1_0_2" index="98" value="1"/>
  <variable name="x_0_14_3" index="131" value="1"/>
  <variable name="x_12_0_3" index="148" value="1"/>
  <variable name="x_0_7_4" index="163" value="1"/>
  <variable name="x_11_0_4" index="186" value="1"/>
  <variable name="x_0_14_5" index="209" value="1"/>
  <variable name="x_16_0_5" index="230" value="1"/>
  <variable name="x_3_12_1" index="708" value="1"/>
  <variable name="x_9_3_1" index="721" value="1"/>
  <variable name="x_4_16_5" index="1031" value="1"/>
  <variable name="x_14_4_5" index="1044" value="1"/>
  <variable name="x_7_19_1" index="1423" value="1"/>
  <variable name="x_7_8_4" index="1487" value="1"/>
  <variable name="x_8_10_4" index="1630" value="1"/>
  <variable name="x_15_9_1" index="1711" value="1"/>
  <variable name="x_10_17_4" index="1883" value="1"/>
  <variable name="x_17_11_4" index="1996" value="1"/>
  <variable name="x_14_12_0" index="2025" value="1"/>
  <variable name="x_14_12_3" index="2070" value="1"/>
  <variable name="x_13_15_1" index="2121" value="1"/>
  <variable name="x_19_13_1" index="2131" value="1"/>
  <variable name="y_0_2" index="2402" value="1"/>
  <variable name="y_1_2" index="2408" value="1"/>
  <variable name="y_2_2" index="2414" value="1"/>
  <variable name="y_3_5" index="2423" value="1"/>
  <variable name="y_4_2" index="2426" value="1"/>
  <variable name="y_5_2" index="2432" value="1"/>
  <variable name="y_6_4" index="2440" value="1"/>
  <variable name="y_7_4" index="2446" value="1"/>
  <variable name="y_8_1" index="2449" value="1"/>
  <variable name="y_9_4" index="2458" value="1"/>
  <variable name="y_10_4" index="2464" value="1"/>
  <variable name="y_11_3" index="2469" value="1"/>
  <variable name="y_12_1" index="2473" value="1"/>
  <variable name="y_13_3" index="2481" value="1"/>
  <variable name="y_14_1" index="2485" value="1"/>
  <variable name="y_15_5" index="2495" value="1"/>
  <variable name="y_16_4" index="2500" value="1"/>
  <variable name="y_17_1" index="2503" value="1"/>
  <variable name="y_18_1" index="2509" value="1"/>
  <variable name="u_1_0" index="2514" value="19"/>
  <variable name="u_2_0" index="2515" value="1"/>
  <variable name="u_1_1" index="2516" value="19"/>
  <variable name="u_2_1" index="2517" value="1"/>
  <variable name="u_1_2" index="2518" value="19"/>
  <variable name="u_2_2" index="2519" value="1"/>
  <variable name="u_1_3" index="2520" value="19"/>
  <variable name="u_2_3" index="2521" value="1"/>
  <variable name="u_1_4" index="2522" value="19"/>
  <variable name="u_2_4" index="2523" value="1"/>
  <variable name="u_1_5" index="2524" value="19"/>
  <variable name="u_2_5" index="2525" value="1"/>
  <variable name="u_3_0" index="2526" value="1"/>
  <variable name="u_3_1" index="2527" value="6.0000000000001243"/>
  <variable name="u_3_2" index="2528" value="1"/>
  <variable name="u_3_3" index="2529" value="1"/>
  <variable name="u_3_4" index="2530" value="1"/>
  <variable name="u_3_5" index="2531" value="1"/>
  <variable name="u_4_0" index="2532" value="1"/>
  <variable name="u_4_1" index="2533" value="1"/>
  <variable name="u_4_2" index="2534" value="1"/>
  <variable name="u_4_3" index="2535" value="1"/>
  <variable name="u_4_4" index="2536" value="1"/>
  <variable name="u_4_5" index="2537" value="2"/>
  <variable name="u_5_0" index="2538" value="1"/>
  <variable name="u_5_1" index="2539" value="1"/>
  <variable name="u_5_2" index="2540" value="1"/>
  <variable name="u_5_3" index="2541" value="1"/>
  <variable name="u_5_4" index="2542" value="1"/>
  <variable name="u_5_5" index="2543" value="1"/>
  <variable name="u_6_0" index="2544" value="1"/>
  <variable name="u_6_1" index="2545" value="1"/>
  <variable name="u_6_2" index="2546" value="1"/>
  <variable name="u_6_3" index="2547" value="1"/>
  <variable name="u_6_4" index="2548" value="1"/>
  <variable name="u_6_5" index="2549" value="1"/>
  <variable name="u_7_0" index="2550" value="1"/>
  <variable name="u_7_1" index="2551" value="1"/>
  <variable name="u_7_2" index="2552" value="1"/>
  <variable name="u_7_3" index="2553" value="1"/>
  <variable name="u_7_4" index="2554" value="1"/>
  <variable name="u_7_5" index="2555" value="1"/>
  <variable name="u_8_0" index="2556" value="1"/>
  <variable name="u_8_1" index="2557" value="1.0000000000000011"/>
  <variable name="u_8_2" index="2558" value="19"/>
  <variable name="u_8_3" index="2559" value="1"/>
  <variable name="u_8_4" index="2560" value="16"/>
  <variable name="u_8_5" index="2561" value="1"/>
  <variable name="u_9_0" index="2562" value="1.0000000000000011"/>
  <variable name="u_9_1" index="2563" value="5.0000000000001243"/>
  <variable name="u_9_2" index="2564" value="19"/>
  <variable name="u_9_3" index="2565" value="1"/>
  <variable name="u_9_4" index="2566" value="19"/>
  <variable name="u_9_5" index="2567" value="1"/>
  <variable name="u_10_0" index="2568" value="1"/>
  <variable name="u_10_1" index="2569" value="1.0000000000000011"/>
  <variable name="u_10_2" index="2570" value="1"/>
  <variable name="u_10_3" index="2571" value="1.0000000000000011"/>
  <variable name="u_10_4" index="2572" value="17"/>
  <variable name="u_10_5" index="2573" value="1"/>
  <variable name="u_11_0" index="2574" value="1"/>
  <variable name="u_11_1" index="2575" value="1.0000000000000011"/>
  <variable name="u_11_2" index="2576" value="1.0000000000000011"/>
  <variable name="u_11_3" index="2577" value="1"/>
  <variable name="u_11_4" index="2578" value="19"/>
  <variable name="u_11_5" index="2579" value="19"/>
  <variable name="u_12_0" index="2580" value="19"/>
  <variable name="u_12_1" index="2581" value="19"/>
  <variable name="u_12_2" index="2582" value="19"/>
  <variable name="u_12_3" index="2583" value="19"/>
  <variable name="u_12_4" index="2584" value="19"/>
  <variable name="u_12_5" index="2585" value="19"/>
  <variable name="u_13_0" index="2586" value="1"/>
  <variable name="u_13_1" index="2587" value="3.0000000000001243"/>
  <variable name="u_13_2" index="2588" value="1"/>
  <variable name="u_13_3" index="2589" value="1"/>
  <variable name="u_13_4" index="2590" value="1"/>
  <variable name="u_13_5" index="2591" value="1"/>
  <variable name="u_14_0" index="2592" value="1"/>
  <variable name="u_14_1" index="2593" value="1"/>
  <variable name="u_14_2" index="2594" value="1"/>
  <variable name="u_14_3" index="2595" value="1"/>
  <variable name="u_14_4" index="2596" value="1"/>
  <variable name="u_14_5" index="2597" value="1"/>
  <variable name="u_15_0" index="2598" value="1.0000000000000011"/>
  <variable name="u_15_1" index="2599" value="4.0000000000001243"/>
  <variable name="u_15_2" index="2600" value="19"/>
  <variable name="u_15_3" index="2601" value="1"/>
  <variable name="u_15_4" index="2602" value="19"/>
  <variable name="u_15_5" index="2603" value="19"/>
  <variable name="u_16_0" index="2604" value="1.0000000000000031"/>
  <variable name="u_16_1" index="2605" value="1"/>
  <variable name="u_16_2" index="2606" value="19"/>
  <variable name="u_16_3" index="2607" value="1"/>
  <variable name="u_16_4" index="2608" value="19"/>
  <variable name="u_16_5" index="2609" value="3"/>
  <variable name="u_17_0" index="2610" value="1"/>
  <variable name="u_17_1" index="2611" value="1.0000000000000011"/>
  <variable name="u_17_2" index="2612" value="1.0000000000000011"/>
  <variable name="u_17_3" index="2613" value="1.0000000000000011"/>
  <variable name="u_17_4" index="2614" value="18"/>
  <variable name="u_17_5" index="2615" value="19"/>
  <variable name="u_18_0" index="2616" value="1"/>
  <variable name="u_18_1" index="2617" value="1"/>
  <variable name="u_18_2" index="2618" value="1"/>
  <variable name="u_18_3" index="2619" value="1"/>
  <variable name="u_18_4" index="2620" value="1"/>
  <variable name="u_18_5" index="2621" value="1"/>
  <variable name="u_19_0" index="2622" value="1.0000000000000031"/>
  <variable name="u_19_1" index="2623" value="2.0000000000001243"/>
  <variable name="u_19_2" index="2624" value="1"/>
  <variable name="u_19_3" index="2625" value="1"/>
  <variable name="u_19_4" index="2626" value="1.0000000000000031"/>
  <variable name="u_19_5" index="2627" value="1"/>
 </variables>
 <objectiveValues>
  <objective index="0" name="" value="294"/>
 </objectiveValues>
</CPLEXSolution>
